38
1 0 2
3 1 2
3 2 1
4 1 1
4 3 1
5 0 2
5 1 2
5 2 1
5 3 2
6 0 1
6 2 2
6 3 2
6 4 2
7 0 2
7 1 1
7 3 1
7 4 2
7 5 1
7 6 1
8 1 2
8 2 1
8 4 1
8 5 2
8 7 2
9 0 1
9 4 2
9 6 2
9 8 2
10 0 2
10 1 2
10 3 1
10 5 2
10 7 2
10 9 2
11 1 2
11 3 2
11 4 2
11 7 1
11 10 1
12 3 2
12 7 2
12 11 1
13 3 1
13 5 1
13 7 2
13 9 2
13 11 2
14 1 1
14 3 2
14 5 1
14 9 2
14 10 1
14 12 2
15 0 2
15 2 1
15 5 2
15 6 1
15 7 1
15 11 2
15 12 1
16 0 1
16 4 2
16 6 1
16 9 2
16 10 2
16 11 2
16 13 2
16 14 1
16 15 2
17 2 2
17 3 2
17 4 2
17 7 1
17 9 2
17 10 2
17 11 1
17 15 2
17 16 2
18 0 1
18 3 2
18 4 2
18 5 1
18 6 1
18 7 1
18 8 1
18 9 1
18 10 2
18 11 1
18 13 2
18 14 2
18 15 1
18 16 2
18 17 1
19 1 1
19 2 1
19 4 2
19 7 1
19 10 1
19 11 1
19 12 1
19 14 2
19 15 2
19 16 2
20 2 2
20 3 1
20 4 1
20 5 2
20 6 2
20 14 2
20 17 2
20 18 1
20 19 1
21 0 2
21 3 1
21 4 1
21 5 2
21 6 1
21 7 1
21 9 2
21 12 1
21 13 2
21 15 1
21 18 1
21 20 1
22 3 2
22 4 2
22 5 1
22 6 1
22 9 2
22 11 1
22 14 1
22 15 1
22 20 1
23 0 1
23 3 2
23 4 1
23 6 1
23 7 1
23 9 2
23 10 1
23 11 2
23 12 2
23 13 2
23 15 1
23 16 2
23 18 2
23 19 1
23 20 1
23 21 2
24 1 1
24 2 2
24 5 1
24 9 1
24 12 1
24 13 2
24 15 2
24 17 1
24 18 2
24 20 2
24 21 2
24 23 1
25 0 2
25 1 1
25 5 1
25 7 1
25 8 2
25 9 2
25 10 1
25 16 1
25 17 2
25 18 1
25 19 1
25 20 2
25 23 1
26 1 1
26 4 1
26 5 2
26 6 2
26 7 2
26 9 1
26 10 2
26 12 1
26 13 2
26 14 1
26 16 2
26 18 2
26 19 1
26 20 2
26 21 1
26 22 1
26 24 2
26 25 1
27 3 1
27 4 2
27 9 1
27 10 2
27 11 2
27 15 1
27 16 2
27 19 1
27 21 1
27 22 2
27 26 1
28 3 1
28 5 2
28 7 1
28 8 1
28 11 2
28 13 1
28 14 2
28 15 2
28 16 1
28 17 2
28 18 1
28 21 2
28 23 1
28 26 2
29 0 2
29 1 1
29 2 1
29 7 1
29 8 2
29 10 2
29 12 1
29 14 1
29 15 2
29 16 2
29 20 1
29 21 1
29 22 1
29 23 2
29 24 2
29 27 2
29 28 1
30 2 2
30 3 1
30 5 2
30 8 1
30 9 2
30 11 2
30 12 1
30 22 1
30 25 1
30 26 1
30 27 2
30 28 2
30 29 1
31 1 2
31 3 2
31 7 2
31 11 1
31 12 1
31 13 2
31 14 2
31 15 2
31 16 2
31 17 1
31 18 2
31 19 1
31 20 2
31 22 1
31 23 2
31 24 1
31 25 2
31 26 1
31 28 2
31 29 2
32 0 1
32 3 1
32 4 2
32 7 1
32 8 2
32 13 1
32 15 2
32 18 1
32 22 2
32 25 2
32 27 1
32 29 1
32 31 1
33 3 2
33 4 1
33 5 2
33 8 2
33 9 1
33 10 1
33 12 2
33 13 1
33 14 1
33 17 1
33 21 1
33 22 1
33 24 2
33 25 1
33 27 2
33 31 1
33 32 1
34 0 2
34 1 2
34 3 2
34 6 2
34 7 1
34 8 2
34 9 1
34 12 1
34 13 2
34 14 1
34 18 2
34 20 2
34 22 1
34 24 1
34 30 2
34 32 1
34 33 2
35 1 2
35 2 1
35 3 1
35 7 1
35 9 2
35 13 1
35 17 2
35 18 1
35 19 2
35 20 1
35 21 2
35 22 1
35 25 1
35 26 2
35 27 1
35 30 2
35 33 1
35 34 2
36 3 1
36 5 2
36 12 2
36 13 2
36 14 2
36 17 1
36 18 2
36 19 1
36 20 2
36 22 2
36 23 2
36 24 2
36 25 2
36 26 1
36 27 2
36 34 2
36 35 2
37 0 1
37 5 1
37 6 1
37 8 2
37 11 1
37 12 2
37 14 2
37 20 2
37 21 2
37 24 2
37 25 1
37 26 1
37 27 2
37 28 1
37 32 1
37 35 1
